aimsflow generated KPOINTS with grid density = 1374 / atom
0
MonKhorst
8 8 8
