Co2V1Ga1_A2BC.001:cF16,Fm-3m#225:FCC  [C  [FCC,FCC,cF16] (STD_PRIM doi:10.1016/j.commatsci.2010.05.010)
1.224745
   0.00000000000000   2.35106412454768   2.35106412454768
   2.35106412454768   0.00000000000000   2.35106412454768
   2.35106412454768   2.35106412454768   0.00000000000000
Co V Ga 
2 1 1 
Direct(4) [A2B1C1] 
   0.25000000000000   0.25000000000000   0.25000000000000  Co    
   0.75000000000000   0.75000000000000   0.75000000000000  Co    
   0.50000000000000   0.50000000000000   0.50000000000000  V     
   0.00000000000000   0.00000000000000   0.00000000000000  Ga    
