 Title
 1.0
          3.90499997          0.00000000          0.00000000
          0.00000000          3.90499997          0.00000000
          0.00000000          0.00000000          3.90499997
   Sr   Ti    O
    1    1    3
 Direct
   0.00000000       0.00000000       0.00000000    
  0.500000000      0.500000000      0.500000000    
  0.500000000      0.500000000       0.00000000    
   0.00000000      0.500000000      0.500000000    
  0.500000000       0.00000000      0.500000000    



