Sn149 H894 C149 I447 N149
1.0
77.145434 0.000000 0.000000
-0.000000 77.145434 0.000000
0.000000 0.000000 6.320000
I Sn N C H
447 149 149 149 894
direct
0.929530 0.100671 0.000000 I
0.862416 0.053691 0.000000 I
0.949664 0.214765 0.000000 I
0.882550 0.167785 0.000000 I
0.815436 0.120805 0.000000 I
0.748322 0.073826 0.000000 I
0.969799 0.328859 0.000000 I
0.902685 0.281879 0.000000 I
0.835570 0.234899 0.000000 I
0.768456 0.187919 0.000000 I
0.701342 0.140940 0.000000 I
0.634228 0.093960 0.000000 I
0.567114 0.046980 0.000000 I
0.922819 0.395973 0.000000 I
0.855705 0.348993 0.000000 I
0.788591 0.302013 0.000000 I
0.721477 0.255034 0.000000 I
0.654362 0.208054 0.000000 I
0.587248 0.161074 0.000000 I
0.520134 0.114094 0.000000 I
0.453020 0.067114 0.000000 I
0.942953 0.510067 0.000000 I
0.875839 0.463087 0.000000 I
0.808725 0.416107 0.000000 I
0.741611 0.369128 0.000000 I
0.674497 0.322148 0.000000 I
0.607383 0.275168 0.000000 I
0.540268 0.228188 0.000000 I
0.473154 0.181208 0.000000 I
0.406040 0.134228 0.000000 I
0.338926 0.087248 0.000000 I
0.271812 0.040268 0.000000 I
0.963087 0.624161 0.000000 I
0.895973 0.577181 0.000000 I
0.828859 0.530201 0.000000 I
0.761745 0.483221 0.000000 I
0.694631 0.436242 0.000000 I
0.627517 0.389262 0.000000 I
0.560403 0.342282 0.000000 I
0.493289 0.295302 0.000000 I
0.426174 0.248322 0.000000 I
0.359060 0.201342 0.000000 I
0.291946 0.154362 0.000000 I
0.224832 0.107383 0.000000 I
0.157718 0.060403 0.000000 I
0.916107 0.691275 0.000000 I
0.848993 0.644295 0.000000 I
0.781879 0.597315 0.000000 I
0.714765 0.550336 0.000000 I
0.647651 0.503356 0.000000 I
0.580537 0.456376 0.000000 I
0.513423 0.409396 0.000000 I
0.446309 0.362416 0.000000 I
0.379195 0.315436 0.000000 I
0.312081 0.268456 0.000000 I
0.244966 0.221477 0.000000 I
0.177852 0.174497 0.000000 I
0.110738 0.127517 0.000000 I
0.043624 0.080537 0.000000 I
0.976510 0.033557 0.000000 I
0.936242 0.805369 0.000000 I
0.869128 0.758389 0.000000 I
0.802013 0.711409 0.000000 I
0.734899 0.664430 0.000000 I
0.667785 0.617450 0.000000 I
0.600671 0.570470 0.000000 I
0.533557 0.523490 0.000000 I
0.466443 0.476510 0.000000 I
0.399329 0.429530 0.000000 I
0.332215 0.382550 0.000000 I
0.265101 0.335570 0.000000 I
0.197987 0.288591 0.000000 I
0.130872 0.241611 0.000000 I
0.063758 0.194631 0.000000 I
0.996644 0.147651 0.000000 I
0.956376 0.919463 0.000000 I
0.889262 0.872483 0.000000 I
0.822148 0.825503 0.000000 I
0.755034 0.778523 0.000000 I
0.687919 0.731544 0.000000 I
0.620805 0.684564 0.000000 I
0.553691 0.637584 0.000000 I
0.486577 0.590604 0.000000 I
0.419463 0.543624 0.000000 I
0.352349 0.496644 0.000000 I
0.285235 0.449664 0.000000 I
0.218121 0.402685 0.000000 I
0.151007 0.355705 0.000000 I
0.083893 0.308725 0.000000 I
0.016779 0.261745 0.000000 I
0.909396 0.986577 0.000000 I
0.842282 0.939597 0.000000 I
0.775168 0.892617 0.000000 I
0.708054 0.845638 0.000000 I
0.640940 0.798658 0.000000 I
0.573826 0.751678 0.000000 I
0.506711 0.704698 0.000000 I
0.439597 0.657718 0.000000 I
0.372483 0.610738 0.000000 I
0.305369 0.563758 0.000000 I
0.238255 0.516779 0.000000 I
0.171141 0.469799 0.000000 I
0.104027 0.422819 0.000000 I
0.036913 0.375839 0.000000 I
0.795302 0.006711 0.000000 I
0.728188 0.959732 0.000000 I
0.661074 0.912752 0.000000 I
0.593960 0.865772 0.000000 I
0.526846 0.818792 0.000000 I
0.459732 0.771812 0.000000 I
0.392617 0.724832 0.000000 I
0.325503 0.677852 0.000000 I
0.258389 0.630872 0.000000 I
0.191275 0.583893 0.000000 I
0.124161 0.536913 0.000000 I
0.057047 0.489933 0.000000 I
0.989933 0.442953 0.000000 I
0.681208 0.026846 0.000000 I
0.614094 0.979866 0.000000 I
0.546980 0.932886 0.000000 I
0.479866 0.885906 0.000000 I
0.412752 0.838926 0.000000 I
0.345638 0.791946 0.000000 I
0.278523 0.744966 0.000000 I
0.211409 0.697987 0.000000 I
0.144295 0.651007 0.000000 I
0.077181 0.604027 0.000000 I
0.010067 0.557047 0.000000 I
0.500000 0.000000 0.000000 I
0.432886 0.953020 0.000000 I
0.365772 0.906040 0.000000 I
0.298658 0.859060 0.000000 I
0.231544 0.812081 0.000000 I
0.164430 0.765101 0.000000 I
0.097315 0.718121 0.000000 I
0.030201 0.671141 0.000000 I
0.385906 0.020134 0.000000 I
0.318792 0.973154 0.000000 I
0.251678 0.926174 0.000000 I
0.184564 0.879195 0.000000 I
0.117450 0.832215 0.000000 I
0.050336 0.785235 0.000000 I
0.983221 0.738255 0.000000 I
0.204698 0.993289 0.000000 I
0.137584 0.946309 0.000000 I
0.070470 0.899329 0.000000 I
0.003356 0.852349 0.000000 I
0.090604 0.013423 0.000000 I
0.023490 0.966443 0.000000 I
0.919463 0.043624 0.000000 I
0.852349 0.996644 0.000000 I
0.939597 0.157718 0.000000 I
0.872483 0.110738 0.000000 I
0.805369 0.063758 0.000000 I
0.738255 0.016779 0.000000 I
0.959732 0.271812 0.000000 I
0.892617 0.224832 0.000000 I
0.825503 0.177852 0.000000 I
0.758389 0.130872 0.000000 I
0.691275 0.083893 0.000000 I
0.624161 0.036913 0.000000 I
0.557047 0.989933 0.000000 I
0.912752 0.338926 0.000000 I
0.845638 0.291946 0.000000 I
0.778523 0.244966 0.000000 I
0.711409 0.197987 0.000000 I
0.644295 0.151007 0.000000 I
0.577181 0.104027 0.000000 I
0.510067 0.057047 0.000000 I
0.442953 0.010067 0.000000 I
0.932886 0.453020 0.000000 I
0.865772 0.406040 0.000000 I
0.798658 0.359060 0.000000 I
0.731544 0.312081 0.000000 I
0.664430 0.265101 0.000000 I
0.597315 0.218121 0.000000 I
0.530201 0.171141 0.000000 I
0.463087 0.124161 0.000000 I
0.395973 0.077181 0.000000 I
0.328859 0.030201 0.000000 I
0.261745 0.983221 0.000000 I
0.953020 0.567114 0.000000 I
0.885906 0.520134 0.000000 I
0.818792 0.473154 0.000000 I
0.751678 0.426174 0.000000 I
0.684564 0.379195 0.000000 I
0.617450 0.332215 0.000000 I
0.550336 0.285235 0.000000 I
0.483221 0.238255 0.000000 I
0.416107 0.191275 0.000000 I
0.348993 0.144295 0.000000 I
0.281879 0.097315 0.000000 I
0.214765 0.050336 0.000000 I
0.147651 0.003356 0.000000 I
0.906040 0.634228 0.000000 I
0.838926 0.587248 0.000000 I
0.771812 0.540268 0.000000 I
0.704698 0.493289 0.000000 I
0.637584 0.446309 0.000000 I
0.570470 0.399329 0.000000 I
0.503356 0.352349 0.000000 I
0.436242 0.305369 0.000000 I
0.369128 0.258389 0.000000 I
0.302013 0.211409 0.000000 I
0.234899 0.164430 0.000000 I
0.167785 0.117450 0.000000 I
0.100671 0.070470 0.000000 I
0.033557 0.023490 0.000000 I
0.966443 0.976510 0.000000 I
0.926174 0.748322 0.000000 I
0.859060 0.701342 0.000000 I
0.791946 0.654362 0.000000 I
0.724832 0.607383 0.000000 I
0.657718 0.560403 0.000000 I
0.590604 0.513423 0.000000 I
0.523490 0.466443 0.000000 I
0.456376 0.419463 0.000000 I
0.389262 0.372483 0.000000 I
0.322148 0.325503 0.000000 I
0.255034 0.278523 0.000000 I
0.187919 0.231544 0.000000 I
0.120805 0.184564 0.000000 I
0.053691 0.137584 0.000000 I
0.986577 0.090604 0.000000 I
0.946309 0.862416 0.000000 I
0.879195 0.815436 0.000000 I
0.812081 0.768456 0.000000 I
0.744966 0.721477 0.000000 I
0.677852 0.674497 0.000000 I
0.610738 0.627517 0.000000 I
0.543624 0.580537 0.000000 I
0.476510 0.533557 0.000000 I
0.409396 0.486577 0.000000 I
0.342282 0.439597 0.000000 I
0.275168 0.392617 0.000000 I
0.208054 0.345638 0.000000 I
0.140940 0.298658 0.000000 I
0.073826 0.251678 0.000000 I
0.006711 0.204698 0.000000 I
0.899329 0.929530 0.000000 I
0.832215 0.882550 0.000000 I
0.765101 0.835570 0.000000 I
0.697987 0.788591 0.000000 I
0.630872 0.741611 0.000000 I
0.563758 0.694631 0.000000 I
0.496644 0.647651 0.000000 I
0.429530 0.600671 0.000000 I
0.362416 0.553691 0.000000 I
0.295302 0.506711 0.000000 I
0.228188 0.459732 0.000000 I
0.161074 0.412752 0.000000 I
0.093960 0.365772 0.000000 I
0.026846 0.318792 0.000000 I
0.785235 0.949664 0.000000 I
0.718121 0.902685 0.000000 I
0.651007 0.855705 0.000000 I
0.583893 0.808725 0.000000 I
0.516779 0.761745 0.000000 I
0.449664 0.714765 0.000000 I
0.382550 0.667785 0.000000 I
0.315436 0.620805 0.000000 I
0.248322 0.573826 0.000000 I
0.181208 0.526846 0.000000 I
0.114094 0.479866 0.000000 I
0.046980 0.432886 0.000000 I
0.979866 0.385906 0.000000 I
0.671141 0.969799 0.000000 I
0.604027 0.922819 0.000000 I
0.536913 0.875839 0.000000 I
0.469799 0.828859 0.000000 I
0.402685 0.781879 0.000000 I
0.335570 0.734899 0.000000 I
0.268456 0.687919 0.000000 I
0.201342 0.640940 0.000000 I
0.134228 0.593960 0.000000 I
0.067114 0.546980 0.000000 I
0.000000 0.500000 0.000000 I
0.489933 0.942953 0.000000 I
0.422819 0.895973 0.000000 I
0.355705 0.848993 0.000000 I
0.288591 0.802013 0.000000 I
0.221477 0.755034 0.000000 I
0.154362 0.708054 0.000000 I
0.087248 0.661074 0.000000 I
0.020134 0.614094 0.000000 I
0.375839 0.963087 0.000000 I
0.308725 0.916107 0.000000 I
0.241611 0.869128 0.000000 I
0.174497 0.822148 0.000000 I
0.107383 0.775168 0.000000 I
0.040268 0.728188 0.000000 I
0.973154 0.681208 0.000000 I
0.194631 0.936242 0.000000 I
0.127517 0.889262 0.000000 I
0.060403 0.842282 0.000000 I
0.993289 0.795302 0.000000 I
0.080537 0.956376 0.000000 I
0.013423 0.909396 0.000000 I
0.953020 0.067114 0.500000 I
0.885906 0.020134 0.500000 I
0.973154 0.181208 0.500000 I
0.906040 0.134228 0.500000 I
0.838926 0.087248 0.500000 I
0.771812 0.040268 0.500000 I
0.993289 0.295302 0.500000 I
0.926174 0.248322 0.500000 I
0.859060 0.201342 0.500000 I
0.791946 0.154362 0.500000 I
0.724832 0.107383 0.500000 I
0.657718 0.060403 0.500000 I
0.590604 0.013423 0.500000 I
0.946309 0.362416 0.500000 I
0.879195 0.315436 0.500000 I
0.812081 0.268456 0.500000 I
0.744966 0.221477 0.500000 I
0.677852 0.174497 0.500000 I
0.610738 0.127517 0.500000 I
0.543624 0.080537 0.500000 I
0.476510 0.033557 0.500000 I
0.966443 0.476510 0.500000 I
0.899329 0.429530 0.500000 I
0.832215 0.382550 0.500000 I
0.765101 0.335570 0.500000 I
0.697987 0.288591 0.500000 I
0.630872 0.241611 0.500000 I
0.563758 0.194631 0.500000 I
0.496644 0.147651 0.500000 I
0.429530 0.100671 0.500000 I
0.362416 0.053691 0.500000 I
0.295302 0.006711 0.500000 I
0.986577 0.590604 0.500000 I
0.919463 0.543624 0.500000 I
0.852349 0.496644 0.500000 I
0.785235 0.449664 0.500000 I
0.718121 0.402685 0.500000 I
0.651007 0.355705 0.500000 I
0.583893 0.308725 0.500000 I
0.516779 0.261745 0.500000 I
0.449664 0.214765 0.500000 I
0.382550 0.167785 0.500000 I
0.315436 0.120805 0.500000 I
0.248322 0.073826 0.500000 I
0.181208 0.026846 0.500000 I
0.939597 0.657718 0.500000 I
0.872483 0.610738 0.500000 I
0.805369 0.563758 0.500000 I
0.738255 0.516779 0.500000 I
0.671141 0.469799 0.500000 I
0.604027 0.422819 0.500000 I
0.536913 0.375839 0.500000 I
0.469799 0.328859 0.500000 I
0.402685 0.281879 0.500000 I
0.335570 0.234899 0.500000 I
0.268456 0.187919 0.500000 I
0.201342 0.140940 0.500000 I
0.134228 0.093960 0.500000 I
0.067114 0.046980 0.500000 I
0.000000 0.000000 0.500000 I
0.959732 0.771812 0.500000 I
0.892617 0.724832 0.500000 I
0.825503 0.677852 0.500000 I
0.758389 0.630872 0.500000 I
0.691275 0.583893 0.500000 I
0.624161 0.536913 0.500000 I
0.557047 0.489933 0.500000 I
0.489933 0.442953 0.500000 I
0.422819 0.395973 0.500000 I
0.355705 0.348993 0.500000 I
0.288591 0.302013 0.500000 I
0.221477 0.255034 0.500000 I
0.154362 0.208054 0.500000 I
0.087248 0.161074 0.500000 I
0.020134 0.114094 0.500000 I
0.979866 0.885906 0.500000 I
0.912752 0.838926 0.500000 I
0.845638 0.791946 0.500000 I
0.778523 0.744966 0.500000 I
0.711409 0.697987 0.500000 I
0.644295 0.651007 0.500000 I
0.577181 0.604027 0.500000 I
0.510067 0.557047 0.500000 I
0.442953 0.510067 0.500000 I
0.375839 0.463087 0.500000 I
0.308725 0.416107 0.500000 I
0.241611 0.369128 0.500000 I
0.174497 0.322148 0.500000 I
0.107383 0.275168 0.500000 I
0.040268 0.228188 0.500000 I
0.932886 0.953020 0.500000 I
0.865772 0.906040 0.500000 I
0.798658 0.859060 0.500000 I
0.731544 0.812081 0.500000 I
0.664430 0.765101 0.500000 I
0.597315 0.718121 0.500000 I
0.530201 0.671141 0.500000 I
0.463087 0.624161 0.500000 I
0.395973 0.577181 0.500000 I
0.328859 0.530201 0.500000 I
0.261745 0.483221 0.500000 I
0.194631 0.436242 0.500000 I
0.127517 0.389262 0.500000 I
0.060403 0.342282 0.500000 I
0.818792 0.973154 0.500000 I
0.751678 0.926174 0.500000 I
0.684564 0.879195 0.500000 I
0.617450 0.832215 0.500000 I
0.550336 0.785235 0.500000 I
0.483221 0.738255 0.500000 I
0.416107 0.691275 0.500000 I
0.348993 0.644295 0.500000 I
0.281879 0.597315 0.500000 I
0.214765 0.550336 0.500000 I
0.147651 0.503356 0.500000 I
0.080537 0.456376 0.500000 I
0.013423 0.409396 0.500000 I
0.704698 0.993289 0.500000 I
0.637584 0.946309 0.500000 I
0.570470 0.899329 0.500000 I
0.503356 0.852349 0.500000 I
0.436242 0.805369 0.500000 I
0.369128 0.758389 0.500000 I
0.302013 0.711409 0.500000 I
0.234899 0.664430 0.500000 I
0.167785 0.617450 0.500000 I
0.100671 0.570470 0.500000 I
0.033557 0.523490 0.500000 I
0.523490 0.966443 0.500000 I
0.456376 0.919463 0.500000 I
0.389262 0.872483 0.500000 I
0.322148 0.825503 0.500000 I
0.255034 0.778523 0.500000 I
0.187919 0.731544 0.500000 I
0.120805 0.684564 0.500000 I
0.053691 0.637584 0.500000 I
0.409396 0.986577 0.500000 I
0.342282 0.939597 0.500000 I
0.275168 0.892617 0.500000 I
0.208054 0.845638 0.500000 I
0.140940 0.798658 0.500000 I
0.073826 0.751678 0.500000 I
0.006711 0.704698 0.500000 I
0.228188 0.959732 0.500000 I
0.161074 0.912752 0.500000 I
0.093960 0.865772 0.500000 I
0.026846 0.818792 0.500000 I
0.114094 0.979866 0.500000 I
0.046980 0.932886 0.500000 I
0.953020 0.067114 0.000000 Sn
0.885906 0.020134 0.000000 Sn
0.973154 0.181208 0.000000 Sn
0.906040 0.134228 0.000000 Sn
0.838926 0.087248 0.000000 Sn
0.771812 0.040268 0.000000 Sn
0.993289 0.295302 0.000000 Sn
0.926174 0.248322 0.000000 Sn
0.859060 0.201342 0.000000 Sn
0.791946 0.154362 0.000000 Sn
0.724832 0.107383 0.000000 Sn
0.657718 0.060403 0.000000 Sn
0.590604 0.013423 0.000000 Sn
0.946309 0.362416 0.000000 Sn
0.879195 0.315436 0.000000 Sn
0.812081 0.268456 0.000000 Sn
0.744966 0.221477 0.000000 Sn
0.677852 0.174497 0.000000 Sn
0.610738 0.127517 0.000000 Sn
0.543624 0.080537 0.000000 Sn
0.476510 0.033557 0.000000 Sn
0.966443 0.476510 0.000000 Sn
0.899329 0.429530 0.000000 Sn
0.832215 0.382550 0.000000 Sn
0.765101 0.335570 0.000000 Sn
0.697987 0.288591 0.000000 Sn
0.630872 0.241611 0.000000 Sn
0.563758 0.194631 0.000000 Sn
0.496644 0.147651 0.000000 Sn
0.429530 0.100671 0.000000 Sn
0.362416 0.053691 0.000000 Sn
0.295302 0.006711 0.000000 Sn
0.986577 0.590604 0.000000 Sn
0.919463 0.543624 0.000000 Sn
0.852349 0.496644 0.000000 Sn
0.785235 0.449664 0.000000 Sn
0.718121 0.402685 0.000000 Sn
0.651007 0.355705 0.000000 Sn
0.583893 0.308725 0.000000 Sn
0.516779 0.261745 0.000000 Sn
0.449664 0.214765 0.000000 Sn
0.382550 0.167785 0.000000 Sn
0.315436 0.120805 0.000000 Sn
0.248322 0.073826 0.000000 Sn
0.181208 0.026846 0.000000 Sn
0.939597 0.657718 0.000000 Sn
0.872483 0.610738 0.000000 Sn
0.805369 0.563758 0.000000 Sn
0.738255 0.516779 0.000000 Sn
0.671141 0.469799 0.000000 Sn
0.604027 0.422819 0.000000 Sn
0.536913 0.375839 0.000000 Sn
0.469799 0.328859 0.000000 Sn
0.402685 0.281879 0.000000 Sn
0.335570 0.234899 0.000000 Sn
0.268456 0.187919 0.000000 Sn
0.201342 0.140940 0.000000 Sn
0.134228 0.093960 0.000000 Sn
0.067114 0.046980 0.000000 Sn
0.000000 0.000000 0.000000 Sn
0.959732 0.771812 0.000000 Sn
0.892617 0.724832 0.000000 Sn
0.825503 0.677852 0.000000 Sn
0.758389 0.630872 0.000000 Sn
0.691275 0.583893 0.000000 Sn
0.624161 0.536913 0.000000 Sn
0.557047 0.489933 0.000000 Sn
0.489933 0.442953 0.000000 Sn
0.422819 0.395973 0.000000 Sn
0.355705 0.348993 0.000000 Sn
0.288591 0.302013 0.000000 Sn
0.221477 0.255034 0.000000 Sn
0.154362 0.208054 0.000000 Sn
0.087248 0.161074 0.000000 Sn
0.020134 0.114094 0.000000 Sn
0.979866 0.885906 0.000000 Sn
0.912752 0.838926 0.000000 Sn
0.845638 0.791946 0.000000 Sn
0.778523 0.744966 0.000000 Sn
0.711409 0.697987 0.000000 Sn
0.644295 0.651007 0.000000 Sn
0.577181 0.604027 0.000000 Sn
0.510067 0.557047 0.000000 Sn
0.442953 0.510067 0.000000 Sn
0.375839 0.463087 0.000000 Sn
0.308725 0.416107 0.000000 Sn
0.241611 0.369128 0.000000 Sn
0.174497 0.322148 0.000000 Sn
0.107383 0.275168 0.000000 Sn
0.040268 0.228188 0.000000 Sn
0.932886 0.953020 0.000000 Sn
0.865772 0.906040 0.000000 Sn
0.798658 0.859060 0.000000 Sn
0.731544 0.812081 0.000000 Sn
0.664430 0.765101 0.000000 Sn
0.597315 0.718121 0.000000 Sn
0.530201 0.671141 0.000000 Sn
0.463087 0.624161 0.000000 Sn
0.395973 0.577181 0.000000 Sn
0.328859 0.530201 0.000000 Sn
0.261745 0.483221 0.000000 Sn
0.194631 0.436242 0.000000 Sn
0.127517 0.389262 0.000000 Sn
0.060403 0.342282 0.000000 Sn
0.818792 0.973154 0.000000 Sn
0.751678 0.926174 0.000000 Sn
0.684564 0.879195 0.000000 Sn
0.617450 0.832215 0.000000 Sn
0.550336 0.785235 0.000000 Sn
0.483221 0.738255 0.000000 Sn
0.416107 0.691275 0.000000 Sn
0.348993 0.644295 0.000000 Sn
0.281879 0.597315 0.000000 Sn
0.214765 0.550336 0.000000 Sn
0.147651 0.503356 0.000000 Sn
0.080537 0.456376 0.000000 Sn
0.013423 0.409396 0.000000 Sn
0.704698 0.993289 0.000000 Sn
0.637584 0.946309 0.000000 Sn
0.570470 0.899329 0.000000 Sn
0.503356 0.852349 0.000000 Sn
0.436242 0.805369 0.000000 Sn
0.369128 0.758389 0.000000 Sn
0.302013 0.711409 0.000000 Sn
0.234899 0.664430 0.000000 Sn
0.167785 0.617450 0.000000 Sn
0.100671 0.570470 0.000000 Sn
0.033557 0.523490 0.000000 Sn
0.523490 0.966443 0.000000 Sn
0.456376 0.919463 0.000000 Sn
0.389262 0.872483 0.000000 Sn
0.322148 0.825503 0.000000 Sn
0.255034 0.778523 0.000000 Sn
0.187919 0.731544 0.000000 Sn
0.120805 0.684564 0.000000 Sn
0.053691 0.637584 0.000000 Sn
0.409396 0.986577 0.000000 Sn
0.342282 0.939597 0.000000 Sn
0.275168 0.892617 0.000000 Sn
0.208054 0.845638 0.000000 Sn
0.140940 0.798658 0.000000 Sn
0.073826 0.751678 0.000000 Sn
0.006711 0.704698 0.000000 Sn
0.228188 0.959732 0.000000 Sn
0.161074 0.912752 0.000000 Sn
0.093960 0.865772 0.000000 Sn
0.026846 0.818792 0.000000 Sn
0.114094 0.979866 0.000000 Sn
0.046980 0.932886 0.000000 Sn
0.890509 0.084987 0.500000 N
0.823395 0.038007 0.500000 N
0.910644 0.199081 0.500000 N
0.843530 0.152101 0.500000 N
0.776415 0.105121 0.500000 N
0.709301 0.058141 0.500000 N
0.930778 0.313174 0.500000 N
0.863664 0.266195 0.500000 N
0.796550 0.219215 0.500000 N
0.729436 0.172235 0.500000 N
0.662321 0.125255 0.500000 N
0.595207 0.078275 0.500000 N
0.528093 0.031295 0.500000 N
0.883798 0.380289 0.500000 N
0.816684 0.333309 0.500000 N
0.749570 0.286329 0.500000 N
0.682456 0.239349 0.500000 N
0.615342 0.192369 0.500000 N
0.548228 0.145389 0.500000 N
0.481113 0.098409 0.500000 N
0.413999 0.051430 0.500000 N
0.903932 0.494383 0.500000 N
0.836818 0.447403 0.500000 N
0.769704 0.400423 0.500000 N
0.702590 0.353443 0.500000 N
0.635476 0.306463 0.500000 N
0.568362 0.259483 0.500000 N
0.501248 0.212503 0.500000 N
0.434134 0.165523 0.500000 N
0.367019 0.118544 0.500000 N
0.299905 0.071564 0.500000 N
0.232791 0.024584 0.500000 N
0.924066 0.608477 0.500000 N
0.856952 0.561497 0.500000 N
0.789838 0.514517 0.500000 N
0.722724 0.467537 0.500000 N
0.655610 0.420557 0.500000 N
0.588496 0.373577 0.500000 N
0.521382 0.326597 0.500000 N
0.454268 0.279617 0.500000 N
0.387154 0.232638 0.500000 N
0.320040 0.185658 0.500000 N
0.252926 0.138678 0.500000 N
0.185811 0.091698 0.500000 N
0.118697 0.044718 0.500000 N
0.877087 0.675591 0.500000 N
0.809972 0.628611 0.500000 N
0.742858 0.581631 0.500000 N
0.675744 0.534651 0.500000 N
0.608630 0.487671 0.500000 N
0.541516 0.440691 0.500000 N
0.474402 0.393711 0.500000 N
0.407288 0.346732 0.500000 N
0.340174 0.299752 0.500000 N
0.273060 0.252772 0.500000 N
0.205946 0.205792 0.500000 N
0.138832 0.158812 0.500000 N
0.071717 0.111832 0.500000 N
0.004603 0.064852 0.500000 N
0.937489 0.017872 0.500000 N
0.897221 0.789685 0.500000 N
0.830107 0.742705 0.500000 N
0.762993 0.695725 0.500000 N
0.695879 0.648745 0.500000 N
0.628764 0.601765 0.500000 N
0.561650 0.554785 0.500000 N
0.494536 0.507805 0.500000 N
0.427422 0.460826 0.500000 N
0.360308 0.413846 0.500000 N
0.293194 0.366866 0.500000 N
0.226080 0.319886 0.500000 N
0.158966 0.272906 0.500000 N
0.091852 0.225926 0.500000 N
0.024738 0.178946 0.500000 N
0.957623 0.131966 0.500000 N
0.917355 0.903779 0.500000 N
0.850241 0.856799 0.500000 N
0.783127 0.809819 0.500000 N
0.716013 0.762839 0.500000 N
0.648899 0.715859 0.500000 N
0.581785 0.668879 0.500000 N
0.514670 0.621899 0.500000 N
0.447556 0.574919 0.500000 N
0.380442 0.527940 0.500000 N
0.313328 0.480960 0.500000 N
0.246214 0.433980 0.500000 N
0.179100 0.387000 0.500000 N
0.111986 0.340020 0.500000 N
0.044872 0.293040 0.500000 N
0.977758 0.246060 0.500000 N
0.870375 0.970893 0.500000 N
0.803261 0.923913 0.500000 N
0.736147 0.876933 0.500000 N
0.669033 0.829953 0.500000 N
0.601919 0.782973 0.500000 N
0.534805 0.735993 0.500000 N
0.467691 0.689013 0.500000 N
0.400577 0.642034 0.500000 N
0.333462 0.595054 0.500000 N
0.266348 0.548074 0.500000 N
0.199234 0.501094 0.500000 N
0.132120 0.454114 0.500000 N
0.065006 0.407134 0.500000 N
0.997892 0.360154 0.500000 N
0.756281 0.991027 0.500000 N
0.689167 0.944047 0.500000 N
0.622053 0.897067 0.500000 N
0.554939 0.850087 0.500000 N
0.487825 0.803107 0.500000 N
0.420711 0.756128 0.500000 N
0.353597 0.709148 0.500000 N
0.286483 0.662168 0.500000 N
0.219368 0.615188 0.500000 N
0.152254 0.568208 0.500000 N
0.085140 0.521228 0.500000 N
0.018026 0.474248 0.500000 N
0.950912 0.427268 0.500000 N
0.642187 0.011161 0.500000 N
0.575073 0.964181 0.500000 N
0.507959 0.917201 0.500000 N
0.440845 0.870221 0.500000 N
0.373731 0.823242 0.500000 N
0.306617 0.776262 0.500000 N
0.239503 0.729282 0.500000 N
0.172389 0.682302 0.500000 N
0.105274 0.635322 0.500000 N
0.038160 0.588342 0.500000 N
0.971046 0.541362 0.500000 N
0.460979 0.984315 0.500000 N
0.393865 0.937336 0.500000 N
0.326751 0.890356 0.500000 N
0.259637 0.843376 0.500000 N
0.192523 0.796396 0.500000 N
0.125409 0.749416 0.500000 N
0.058295 0.702436 0.500000 N
0.991181 0.655456 0.500000 N
0.346885 0.004450 0.500000 N
0.279771 0.957470 0.500000 N
0.212657 0.910490 0.500000 N
0.145543 0.863510 0.500000 N
0.078429 0.816530 0.500000 N
0.011315 0.769550 0.500000 N
0.944201 0.722570 0.500000 N
0.165677 0.977604 0.500000 N
0.098563 0.930624 0.500000 N
0.031449 0.883644 0.500000 N
0.964335 0.836664 0.500000 N
0.051583 0.997738 0.500000 N
0.984469 0.950758 0.500000 N
0.901437 0.069376 0.500000 C
0.834323 0.022396 0.500000 C
0.921571 0.183470 0.500000 C
0.854457 0.136490 0.500000 C
0.787343 0.089510 0.500000 C
0.720229 0.042530 0.500000 C
0.941705 0.297564 0.500000 C
0.874591 0.250584 0.500000 C
0.807477 0.203604 0.500000 C
0.740363 0.156624 0.500000 C
0.673249 0.109644 0.500000 C
0.606135 0.062664 0.500000 C
0.539021 0.015685 0.500000 C
0.894726 0.364678 0.500000 C
0.827611 0.317698 0.500000 C
0.760497 0.270718 0.500000 C
0.693383 0.223738 0.500000 C
0.626269 0.176758 0.500000 C
0.559155 0.129779 0.500000 C
0.492041 0.082799 0.500000 C
0.424927 0.035819 0.500000 C
0.914860 0.478772 0.500000 C
0.847746 0.431792 0.500000 C
0.780632 0.384812 0.500000 C
0.713517 0.337832 0.500000 C
0.646403 0.290852 0.500000 C
0.579289 0.243872 0.500000 C
0.512175 0.196893 0.500000 C
0.445061 0.149913 0.500000 C
0.377947 0.102933 0.500000 C
0.310833 0.055953 0.500000 C
0.243719 0.008973 0.500000 C
0.934994 0.592866 0.500000 C
0.867880 0.545886 0.500000 C
0.800766 0.498906 0.500000 C
0.733652 0.451926 0.500000 C
0.666538 0.404946 0.500000 C
0.599423 0.357966 0.500000 C
0.532309 0.310987 0.500000 C
0.465195 0.264007 0.500000 C
0.398081 0.217027 0.500000 C
0.330967 0.170047 0.500000 C
0.263853 0.123067 0.500000 C
0.196739 0.076087 0.500000 C
0.129625 0.029107 0.500000 C
0.888014 0.659980 0.500000 C
0.820900 0.613000 0.500000 C
0.753786 0.566020 0.500000 C
0.686672 0.519040 0.500000 C
0.619558 0.472060 0.500000 C
0.552444 0.425081 0.500000 C
0.485330 0.378101 0.500000 C
0.418215 0.331121 0.500000 C
0.351101 0.284141 0.500000 C
0.283987 0.237161 0.500000 C
0.216873 0.190181 0.500000 C
0.149759 0.143201 0.500000 C
0.082645 0.096221 0.500000 C
0.015531 0.049242 0.500000 C
0.948417 0.002262 0.500000 C
0.908148 0.774074 0.500000 C
0.841034 0.727094 0.500000 C
0.773920 0.680114 0.500000 C
0.706806 0.633134 0.500000 C
0.639692 0.586154 0.500000 C
0.572578 0.539174 0.500000 C
0.505464 0.492195 0.500000 C
0.438350 0.445215 0.500000 C
0.371236 0.398235 0.500000 C
0.304121 0.351255 0.500000 C
0.237007 0.304275 0.500000 C
0.169893 0.257295 0.500000 C
0.102779 0.210315 0.500000 C
0.035665 0.163336 0.500000 C
0.968551 0.116356 0.500000 C
0.928283 0.888168 0.500000 C
0.861168 0.841188 0.500000 C
0.794054 0.794208 0.500000 C
0.726940 0.747228 0.500000 C
0.659826 0.700248 0.500000 C
0.592712 0.653268 0.500000 C
0.525598 0.606289 0.500000 C
0.458484 0.559309 0.500000 C
0.391370 0.512329 0.500000 C
0.324256 0.465349 0.500000 C
0.257142 0.418369 0.500000 C
0.190028 0.371389 0.500000 C
0.122913 0.324409 0.500000 C
0.055799 0.277430 0.500000 C
0.988685 0.230450 0.500000 C
0.881303 0.955282 0.500000 C
0.814189 0.908302 0.500000 C
0.747074 0.861322 0.500000 C
0.679960 0.814342 0.500000 C
0.612846 0.767362 0.500000 C
0.545732 0.720383 0.500000 C
0.478618 0.673403 0.500000 C
0.411504 0.626423 0.500000 C
0.344390 0.579443 0.500000 C
0.277276 0.532463 0.500000 C
0.210162 0.485483 0.500000 C
0.143048 0.438503 0.500000 C
0.075934 0.391523 0.500000 C
0.008819 0.344544 0.500000 C
0.767209 0.975416 0.500000 C
0.700095 0.928436 0.500000 C
0.632981 0.881456 0.500000 C
0.565866 0.834477 0.500000 C
0.498752 0.787497 0.500000 C
0.431638 0.740517 0.500000 C
0.364524 0.693537 0.500000 C
0.297410 0.646557 0.500000 C
0.230296 0.599577 0.500000 C
0.163182 0.552597 0.500000 C
0.096068 0.505617 0.500000 C
0.028954 0.458638 0.500000 C
0.961840 0.411658 0.500000 C
0.653115 0.995550 0.500000 C
0.586001 0.948570 0.500000 C
0.518887 0.901591 0.500000 C
0.451772 0.854611 0.500000 C
0.384658 0.807631 0.500000 C
0.317544 0.760651 0.500000 C
0.250430 0.713671 0.500000 C
0.183316 0.666691 0.500000 C
0.116202 0.619711 0.500000 C
0.049088 0.572732 0.500000 C
0.981974 0.525752 0.500000 C
0.471907 0.968705 0.500000 C
0.404793 0.921725 0.500000 C
0.337679 0.874745 0.500000 C
0.270564 0.827765 0.500000 C
0.203450 0.780785 0.500000 C
0.136336 0.733805 0.500000 C
0.069222 0.686826 0.500000 C
0.002108 0.639846 0.500000 C
0.357813 0.988839 0.500000 C
0.290699 0.941859 0.500000 C
0.223585 0.894879 0.500000 C
0.156470 0.847899 0.500000 C
0.089356 0.800919 0.500000 C
0.022242 0.753940 0.500000 C
0.955128 0.706960 0.500000 C
0.176605 0.961993 0.500000 C
0.109491 0.915013 0.500000 C
0.042377 0.868034 0.500000 C
0.975262 0.821054 0.500000 C
0.062511 0.982128 0.500000 C
0.995397 0.935148 0.500000 C
0.878386 0.082784 0.565408 H
0.811272 0.035805 0.565408 H
0.898520 0.196878 0.565408 H
0.831406 0.149899 0.565408 H
0.764292 0.102919 0.565408 H
0.697178 0.055939 0.565408 H
0.918654 0.310972 0.565408 H
0.851540 0.263993 0.565408 H
0.784426 0.217013 0.565408 H
0.717312 0.170033 0.565408 H
0.650198 0.123053 0.565408 H
0.583084 0.076073 0.565408 H
0.515970 0.029093 0.565408 H
0.871674 0.378086 0.565408 H
0.804560 0.331107 0.565408 H
0.737446 0.284127 0.565408 H
0.670332 0.237147 0.565408 H
0.603218 0.190167 0.565408 H
0.536104 0.143187 0.565408 H
0.468990 0.096207 0.565408 H
0.401876 0.049227 0.565408 H
0.891809 0.492180 0.565408 H
0.824694 0.445201 0.565408 H
0.757580 0.398221 0.565408 H
0.690466 0.351241 0.565408 H
0.623352 0.304261 0.565408 H
0.556238 0.257281 0.565408 H
0.489124 0.210301 0.565408 H
0.422010 0.163321 0.565408 H
0.354896 0.116342 0.565408 H
0.287782 0.069362 0.565408 H
0.220668 0.022382 0.565408 H
0.911943 0.606274 0.565408 H
0.844829 0.559295 0.565408 H
0.777715 0.512315 0.565408 H
0.710601 0.465335 0.565408 H
0.643486 0.418355 0.565408 H
0.576372 0.371375 0.565408 H
0.509258 0.324395 0.565408 H
0.442144 0.277415 0.565408 H
0.375030 0.230435 0.565408 H
0.307916 0.183456 0.565408 H
0.240802 0.136476 0.565408 H
0.173688 0.089496 0.565408 H
0.106574 0.042516 0.565408 H
0.864963 0.673388 0.565408 H
0.797849 0.626409 0.565408 H
0.730735 0.579429 0.565408 H
0.663621 0.532449 0.565408 H
0.596507 0.485469 0.565408 H
0.529392 0.438489 0.565408 H
0.462278 0.391509 0.565408 H
0.395164 0.344529 0.565408 H
0.328050 0.297550 0.565408 H
0.260936 0.250570 0.565408 H
0.193822 0.203590 0.565408 H
0.126708 0.156610 0.565408 H
0.059594 0.109630 0.565408 H
0.992480 0.062650 0.565408 H
0.925366 0.015670 0.565408 H
0.885097 0.787482 0.565408 H
0.817983 0.740503 0.565408 H
0.750869 0.693523 0.565408 H
0.683755 0.646543 0.565408 H
0.616641 0.599563 0.565408 H
0.549527 0.552583 0.565408 H
0.482413 0.505603 0.565408 H
0.415298 0.458623 0.565408 H
0.348184 0.411644 0.565408 H
0.281070 0.364664 0.565408 H
0.213956 0.317684 0.565408 H
0.146842 0.270704 0.565408 H
0.079728 0.223724 0.565408 H
0.012614 0.176744 0.565408 H
0.945500 0.129764 0.565408 H
0.905231 0.901576 0.565408 H
0.838117 0.854597 0.565408 H
0.771003 0.807617 0.565408 H
0.703889 0.760637 0.565408 H
0.636775 0.713657 0.565408 H
0.569661 0.666677 0.565408 H
0.502547 0.619697 0.565408 H
0.435433 0.572717 0.565408 H
0.368319 0.525737 0.565408 H
0.301205 0.478758 0.565408 H
0.234090 0.431778 0.565408 H
0.166976 0.384798 0.565408 H
0.099862 0.337818 0.565408 H
0.032748 0.290838 0.565408 H
0.965634 0.243858 0.565408 H
0.858252 0.968691 0.565408 H
0.791137 0.921711 0.565408 H
0.724023 0.874731 0.565408 H
0.656909 0.827751 0.565408 H
0.589795 0.780771 0.565408 H
0.522681 0.733791 0.565408 H
0.455567 0.686811 0.565408 H
0.388453 0.639831 0.565408 H
0.321339 0.592852 0.565408 H
0.254225 0.545872 0.565408 H
0.187111 0.498892 0.565408 H
0.119996 0.451912 0.565408 H
0.052882 0.404932 0.565408 H
0.985768 0.357952 0.565408 H
0.744158 0.988825 0.565408 H
0.677043 0.941845 0.565408 H
0.609929 0.894865 0.565408 H
0.542815 0.847885 0.565408 H
0.475701 0.800905 0.565408 H
0.408587 0.753925 0.565408 H
0.341473 0.706946 0.565408 H
0.274359 0.659966 0.565408 H
0.207245 0.612986 0.565408 H
0.140131 0.566006 0.565408 H
0.073017 0.519026 0.565408 H
0.005903 0.472046 0.565408 H
0.938788 0.425066 0.565408 H
0.630064 0.008959 0.565408 H
0.562950 0.961979 0.565408 H
0.495835 0.914999 0.565408 H
0.428721 0.868019 0.565408 H
0.361607 0.821040 0.565408 H
0.294493 0.774060 0.565408 H
0.227379 0.727080 0.565408 H
0.160265 0.680100 0.565408 H
0.093151 0.633120 0.565408 H
0.026037 0.586140 0.565408 H
0.958923 0.539160 0.565408 H
0.448856 0.982113 0.565408 H
0.381741 0.935133 0.565408 H