aimsflow generated KPOINTS with grid density = 8589 / atom
0
MonKhorst
16 16 16
