Bi1Fe1O3   [MCLC,MCLC1,mS10] (STD_PRIM d
1.000000
   2.81580594547088   2.88009790467776   0.01719255142612
  -2.81580594547088   2.88009790467776   0.01719255142612
   0.00000000000000   0.16891747300858   4.19668994398087
1 1 3 
Direct(5) [A1B1C3] 
   0.06089887272473   0.06089887272473   0.07015439754459  Bi    
   0.48473684850439   0.48473684850439   0.49168683519713  Fe    
   0.43933941353938   0.43933941353938   0.95122111434379  O     
   0.96764212296241   0.44458274226909   0.42331882645724  O     
   0.44458274226909   0.96764212296241   0.42331882645724  O 
