Ba1Fe1O3   [CUB,CUB,cP5] (STD_PRIM doi:1
1.000000
   4.02859079194044   0.00000000000000   0.00000000000000
   0.00000000000000   4.02859079194044   0.00000000000000
   0.00000000000000   0.00000000000000   4.02859079194044
1 1 3 
Direct(5) [A1B1C3] 
   0.00000000000000   0.00000000000000   0.00000000000000  Ba    
   0.50000000000000   0.50000000000000   0.50000000000000  Fe    
   0.50000000000000   0.50000000000000   0.00000000000000  O     
   0.00000000000000   0.50000000000000   0.50000000000000  O     
   0.50000000000000   0.00000000000000   0.50000000000000  O  
