TiO2_anatase
1.0
        3.7845000229         0.0000000000         0.0000000000
        0.0000000000         3.7845000229         0.0000000000
        0.0000000000         0.0000000000         9.5143000610
   Ti    O
    4    8
Direct
     0.000000000         0.000000000         0.000000000
     0.500000000         0.500000000         0.500000000
     0.000000000         0.500000000         0.250000000
     0.500000000         0.000000000         0.750000000
     0.000000000         0.000000000         0.208000004
     0.500000000         0.500000000         0.708000004
     0.000000000         0.500000000         0.458000004
     0.500000000         0.000000000         0.958000004
     0.500000000         0.000000000         0.541999996
     0.000000000         0.500000000         0.041999996
     0.500000000         0.500000000         0.291999996
     0.000000000         0.000000000         0.791999996
