Mg1 O1
1.0
        2.979         	     0.0000000000         0.0000000000
        0.0000000000         2.979                0.0000000000
        0.0000000000         0.0000000000         4.213
    O   Mg
    2    2
Direct
     0.000000000         0.000000000         0.000000000
     0.500000000         0.500000000         0.500000000
    -0.000000000        -0.000000000         0.500000000
     0.500000000         0.500000000         0.000000000
