Fe2
1.0
2.848116 0.000000 0.000000
0.000000 2.848116 0.000000
0.000000 0.000000 2.848116
Fe
2
direct(2)
0.000000 0.000000 0.000000 Fe
0.500000 0.500000 0.500000 Fe
