aimsflow generated KPOINTS with grid density = 10737 / atom
0
Gamma
17 17 17
