ALGO = Normal
EDIFF = 1e-06
EMAX = 25
EMIN = -25
ENCUT = 500
IBRION = -1
ICHARG = 2
ISMEAR = -5
ISPIN = 1
LCHARG = True
LMAXMIX = 4
LNONCOLLINEAR = True
LORBIT = 11
LORBMOM = True
LREAL = Auto
LSORBIT = True
LWAVE = False
MAGMOM = 1*3.53553391 1*0 2*3.53553391 1*0 1*3.53553391
NEDOS = 5000
NELM = 200
NPAR = 4
NSW = 0
PREC = Accurate
SIGMA = 0.05
