Fe2
1.0
        2.8481159210         0.0000000000         0.0000000000
        0.0000000000         2.8481159210         0.0000000000
        0.0000000000         0.0000000000         2.8481159210
   Fe
    2
Direct
     0.000000000         0.000000000         0.000000000
     0.500000000         0.500000000         0.500000000
