Sr1Ti1O3_ABC3.003:cP5,Pm-3m#221:CUB
1.000000
    4.0861060533121289     0.0000000000000000     0.0000000000000000
    0.0000000000000004     4.0861060533121289     0.0000000000000000
    0.0000000000000004     0.0000000000000004     4.0861060533121289
Sr  Ti  O  
1  1  3  
Direct(5)
  0.0000000000000000     0.0000000000000000     0.0000000000000000      Sr  
  0.5000000000000000     0.5000000000000000     0.5000000000000000      Ti  
  0.5000000000000000     0.5000000000000000     0.0000000000000000      O  
  0.0000000000000000     0.5000000000000000     0.5000000000000000      O  
  0.5000000000000000     0.0000000000000000     0.5000000000000000      O
